21
100 1 1 1 1 1 1 1 1 1 1 1 1 1 1 1 1 1 1 1 1
20
25 1 0 0 0 0 0 0 0 0 0 0 0 0 0 0 0 0 0 0 0 39
76 0 1 0 0 0 0 0 0 0 0 0 0 0 0 0 0 0 0 0 0 6
37 0 0 1 0 0 0 0 0 0 0 0 0 0 0 0 0 0 0 0 0 48
9 0 0 0 1 0 0 0 0 0 0 0 0 0 0 0 0 0 0 0 0 72
84 0 0 0 0 1 0 0 0 0 0 0 0 0 0 0 0 0 0 0 0 10
6 0 0 0 0 0 1 0 0 0 0 0 0 0 0 0 0 0 0 0 0 42
44 0 0 0 0 0 0 1 0 0 0 0 0 0 0 0 0 0 0 0 0 82
70 0 0 0 0 0 0 0 1 0 0 0 0 0 0 0 0 0 0 0 0 2
92 0 0 0 0 0 0 0 0 1 0 0 0 0 0 0 0 0 0 0 0 42
72 0 0 0 0 0 0 0 0 0 1 0 0 0 0 0 0 0 0 0 0 40
12 0 0 0 0 0 0 0 0 0 0 1 0 0 0 0 0 0 0 0 0 74
76 0 0 0 0 0 0 0 0 0 0 0 1 0 0 0 0 0 0 0 0 6
74 0 0 0 0 0 0 0 0 0 0 0 0 1 0 0 0 0 0 0 0 37
82 0 0 0 0 0 0 0 0 0 0 0 0 0 1 0 0 0 0 0 0 50
42 0 0 0 0 0 0 0 0 0 0 0 0 0 0 1 0 0 0 0 0 13
90 0 0 0 0 0 0 0 0 0 0 0 0 0 0 0 1 0 0 0 0 21
49 0 0 0 0 0 0 0 0 0 0 0 0 0 0 0 0 1 0 0 0 43
1 0 0 0 0 0 0 0 0 0 0 0 0 0 0 0 0 0 1 0 0 80
89 0 0 0 0 0 0 0 0 0 0 0 0 0 0 0 0 0 0 1 0 25
78 0 0 0 0 0 0 0 0 0 0 0 0 0 0 0 0 0 0 0 1 48
